p cnf 96 337
-1 -2 -3 0
1 2 -3 0
-1 2 3 0
1 -2 3 0
-7 5 0
-7 -6 0
-5 6 7 0
-8 -4 0
-8 -7 0
4 7 8 0
-9 -3 0
-9 -8 0
3 8 9 0
-12 -10 0
-12 -11 0
10 11 12 0
-13 9 0
-13 -12 0
-9 12 13 0
-14 8 -15 0
14 -8 -15 0
-14 -8 15 0
14 8 15 0
17 3 0
17 -1 0
-3 1 -17 0
-16 17 -18 0
16 -17 -18 0
-16 -17 18 0
16 17 18 0
-19 -18 0
-19 -6 0
18 6 19 0
20 19 0
20 -4 0
-19 4 -20 0
-21 -14 -22 0
21 14 -22 0
-21 14 22 0
21 -14 22 0
20 22 -23 0
-20 -22 -23 0
20 -22 23 0
-20 22 23 0
15 -23 -24 0
-15 23 -24 0
15 23 24 0
-15 -23 24 0
26 25 0
26 8 0
-25 -8 -26 0
-24 -26 -27 0
24 26 -27 0
-24 26 27 0
24 -26 27 0
-13 27 -28 0
13 -27 -28 0
-13 -27 28 0
13 27 28 0
-29 17 0
-29 -3 0
-17 3 29 0
30 16 -31 0
-30 -16 -31 0
30 -16 31 0
-30 16 31 0
32 -31 0
32 -19 0
31 19 -32 0
-29 32 -33 0
29 -32 -33 0
-29 -32 33 0
29 32 33 0
33 -3 -34 0
-33 3 -34 0
33 3 34 0
-33 -3 34 0
11 2 -35 0
-11 -2 -35 0
11 -2 35 0
-11 2 35 0
-35 1 -36 0
35 -1 -36 0
-35 -1 36 0
35 1 36 0
-37 -34 0
-37 36 0
34 -36 37 0
38 18 0
38 -19 0
-18 19 -38 0
39 38 0
39 -29 0
-38 29 -39 0
-39 4 -40 0
39 -4 -40 0
-39 -4 40 0
39 4 40 0
37 40 -41 0
-37 -40 -41 0
37 -40 41 0
-37 40 41 0
-42 -28 0
-42 -41 0
28 41 42 0
-44 -35 0
-44 -43 0
35 43 44 0
1 -44 -45 0
-1 44 -45 0
1 44 45 0
-1 -44 45 0
-46 45 0
-46 -5 0
-45 5 46 0
47 42 0
47 46 0
-42 -46 -47 0
48 -25 0
48 -14 0
25 14 -48 0
49 -48 0
49 -6 0
48 6 -49 0
50 43 0
50 3 0
-43 -3 -50 0
-51 49 0
-51 -50 0
-49 50 51 0
43 1 -53 0
-43 -1 -53 0
43 -1 53 0
-43 1 53 0
54 53 0
54 -7 0
-53 7 -54 0
52 54 -55 0
-52 -54 -55 0
52 -54 55 0
-52 54 55 0
-51 -55 -56 0
51 55 -56 0
-51 55 56 0
51 -55 56 0
-57 6 0
-57 14 0
-6 -14 57 0
58 38 0
58 -57 0
-38 57 -58 0
-58 16 -59 0
58 -16 -59 0
-58 -16 59 0
58 16 59 0
60 -59 0
60 2 0
59 -2 -60 0
-56 -60 -61 0
56 60 -61 0
-56 60 61 0
56 -60 61 0
-47 -61 -62 0
47 61 -62 0
-47 61 62 0
47 -61 62 0
63 4 0
63 -5 0
-4 5 -63 0
63 -9 -64 0
-63 9 -64 0
63 9 64 0
-63 -9 64 0
65 -62 0
65 -64 0
62 64 -65 0
-53 44 -66 0
53 -44 -66 0
-53 -44 66 0
53 44 66 0
57 -10 -67 0
-57 10 -67 0
57 10 67 0
-57 -10 67 0
-68 66 0
-68 67 0
-66 -67 68 0
-1 11 -69 0
1 -11 -69 0
-1 -11 69 0
1 11 69 0
70 43 0
70 -69 0
-43 69 -70 0
71 -68 0
71 -70 0
68 70 -71 0
72 65 0
72 -71 0
-65 71 -72 0
-73 -57 0
-73 25 0
57 -25 73 0
74 10 0
74 -10 0
75 74 0
75 -2 0
-74 2 -75 0
-73 -75 -76 0
73 75 -76 0
-73 75 76 0
73 -75 76 0
77 6 0
77 -11 0
-6 11 -77 0
-78 14 0
-78 -10 0
-14 10 78 0
-79 -36 0
-79 -3 0
36 3 79 0
80 78 0
80 79 0
-78 -79 -80 0
-77 -80 -81 0
77 80 -81 0
-77 80 81 0
77 -80 81 0
-58 12 -82 0
58 -12 -82 0
-58 -12 82 0
58 12 82 0
83 -38 0
83 82 0
38 -82 -83 0
11 -17 -84 0
-11 17 -84 0
11 17 84 0
-11 -17 84 0
85 83 0
85 -84 0
-83 84 -85 0
-86 -81 0
-86 -85 0
81 85 86 0
-87 -76 0
-87 86 0
76 -86 87 0
-88 11 0
-88 52 0
-11 -52 88 0
43 2 -89 0
-43 -2 -89 0
43 -2 89 0
-43 2 89 0
-89 57 -90 0
89 -57 -90 0
-89 -57 90 0
89 57 90 0
-88 -90 -91 0
88 90 -91 0
-88 90 91 0
88 -90 91 0
92 -1 0
92 74 0
1 -74 -92 0
92 9 -93 0
-92 -9 -93 0
92 -9 93 0
-92 9 93 0
-94 -91 0
-94 93 0
91 -93 94 0
-95 87 0
-95 94 0
-87 -94 95 0
-72 -95 -96 0
72 95 -96 0
-72 95 96 0
72 -95 96 0
75 77 0
82 -89 45 0
-14 -69 58 0
32 2 -45 0
-90 -92 30 -29 34 0
-36 -81 13 58 18 0
79 77 -53 -76 72 58 0
-91 -29 13 -47 -69 -73 0
95 -39 50 54 38 0
-52 -59 24 -83 73 42 0
30 -5 0
33 44 -93 -64 0
-94 59 0
-77 89 -22 92 20 0
73 -8 -16 -1 0
17 8 -76 -93 -3 -87 0
-39 -14 -60 -8 -1 0
36 -51 -46 96 88 0
-13 -54 -28 86 -92 0
16 14 -88 -34 -27 68 0
24 71 79 -70 0
66 31 71 0
67 82 29 -36 47 0
69 64 0
28 -61 -56 0
57 85 -43 94 0
-26 24 -81 -74 -9 -2 0
-74 80 -11 65 33 12 0
40 3 -95 -56 7 2 0
87 47 -22 29 -90 0
-26 -72 68 -13 -23 0
-91 -74 75 0
-65 73 0
-33 25 -34 0
-26 4 -82 6 -61 0
3 -48 -9 -53 27 0
13 -4 39 -45 15 -32 0
-56 95 16 0
82 -22 0
-69 -87 86 -79 0
-30 -3 -34 -5 -82 41 0
50 -3 27 -53 0
-88 65 0
-14 47 -31 23 18 0
37 -95 -11 -68 -47 10 0
95 56 93 0
60 47 -32 -92 -23 0
10 -74 49 82 -67 0
-66 68 19 0
-2 84 73 -88 33 0
90 -37 -13 82 4 72 0
20 87 -96 39 0
83 -50 -67 0
60 90 -56 0
-35 61 -75 -5 -55 -49 0
33 -46 -41 0
96 0
